[runlim] version:		1.10
[runlim] time limit:		311040000 seconds
[runlim] real time limit:	600 seconds
[runlim] space limit:		14000 MB
[runlim] argv[0]:		python3
[runlim] argv[1]:		-u
[runlim] argv[2]:		mip.py
[runlim] argv[3]:		TUD916.3
[runlim] start:			Sat Jan 24 20:09:36 2026
[runlim] main pid:		72621
Building MIP model...
[runlim] sample:		10.0 time, 10.7 real, 38.6 MB
[runlim] sample:		20.0 time, 20.7 real, 40.5 MB
[runlim] sample:		30.0 time, 30.7 real, 41.0 MB
[runlim] sample:		40.0 time, 40.7 real, 43.0 MB
[runlim] sample:		50.0 time, 50.7 real, 45.5 MB
[runlim] sample:		60.0 time, 60.7 real, 46.9 MB
[runlim] sample:		70.0 time, 70.7 real, 47.3 MB
[runlim] sample:		80.0 time, 80.7 real, 48.1 MB
[runlim] sample:		89.9 time, 90.7 real, 48.3 MB
[runlim] sample:		99.9 time, 100.7 real, 50.1 MB
[runlim] sample:		109.9 time, 110.7 real, 50.3 MB
[runlim] sample:		119.9 time, 120.7 real, 50.6 MB
[runlim] sample:		129.9 time, 130.7 real, 52.7 MB
[runlim] sample:		139.9 time, 140.7 real, 53.1 MB
[runlim] sample:		149.9 time, 150.7 real, 53.2 MB
[runlim] sample:		159.9 time, 160.7 real, 53.4 MB
[runlim] sample:		169.9 time, 170.7 real, 55.8 MB
[runlim] sample:		179.9 time, 180.7 real, 56.2 MB
[runlim] sample:		189.9 time, 190.7 real, 56.6 MB
[runlim] sample:		199.9 time, 200.7 real, 56.7 MB
[runlim] sample:		209.8 time, 210.7 real, 56.8 MB
[runlim] sample:		219.8 time, 220.7 real, 59.4 MB
[runlim] sample:		229.8 time, 230.7 real, 59.9 MB
[runlim] sample:		239.8 time, 240.7 real, 60.2 MB
[runlim] sample:		249.8 time, 250.7 real, 60.4 MB
[runlim] sample:		259.8 time, 260.7 real, 60.6 MB
[runlim] sample:		269.8 time, 270.7 real, 60.7 MB
[runlim] sample:		279.8 time, 280.7 real, 63.2 MB
[runlim] sample:		289.8 time, 290.7 real, 66.4 MB
[runlim] sample:		299.8 time, 300.7 real, 67.2 MB
[runlim] sample:		309.8 time, 310.7 real, 67.6 MB
[runlim] sample:		319.8 time, 320.7 real, 67.9 MB
[runlim] sample:		329.8 time, 330.7 real, 68.2 MB
[runlim] sample:		339.8 time, 340.7 real, 68.3 MB
[runlim] sample:		349.8 time, 350.7 real, 68.4 MB
[runlim] sample:		359.7 time, 360.7 real, 68.6 MB
[runlim] sample:		369.7 time, 370.7 real, 68.7 MB
[runlim] sample:		379.7 time, 380.7 real, 72.6 MB
[runlim] sample:		389.7 time, 390.7 real, 73.3 MB
Build time: 396.08s
Solving MIP (minimizing number of labels)...
Version identifier: 22.1.1.0 | 2022-11-28 | 9160aff4d
CPXPARAM_Read_DataCheck                          1
Legacy callback                                  i
Tried aggregator 2 times.
[runlim] sample:		403.1 time, 400.7 real, 350.2 MB
MIP Presolve eliminated 750954 rows and 182 columns.
MIP Presolve modified 65435 coefficients.
Aggregator did 17221 substitutions.
Reduced MIP has 56241 rows, 17087 columns, and 679442 nonzeros.
Reduced MIP has 17087 binaries, 0 generals, 0 SOSs, and 0 indicators.
Presolve time = 3.95 sec. (4907.43 ticks)
Probing fixed 86 vars, tightened 0 bounds.
Probing changed sense of 9 constraints.
Probing time = 0.06 sec. (22.30 ticks)
Tried aggregator 1 time.
Detecting symmetries...
MIP Presolve eliminated 20 rows and 88 columns.
MIP Presolve modified 1835 coefficients.
Reduced MIP has 56085 rows, 16999 columns, and 672585 nonzeros.
Reduced MIP has 16999 binaries, 0 generals, 0 SOSs, and 0 indicators.
Presolve time = 0.85 sec. (837.57 ticks)
Probing fixed 15 vars, tightened 0 bounds.
Probing changed sense of 1 constraints.
Probing time = 0.06 sec. (21.91 ticks)
Clique table members: 73173.
MIP emphasis: balance optimality and feasibility.
MIP search method: dynamic search.
Parallel mode: deterministic, using up to 12 threads.
[runlim] sample:		443.2 time, 410.7 real, 822.6 MB
[runlim] sample:		503.3 time, 420.7 real, 1639.7 MB
[runlim] sample:		602.6 time, 430.7 real, 1713.6 MB
[runlim] sample:		701.7 time, 440.7 real, 1713.6 MB
[runlim] sample:		800.8 time, 450.7 real, 1713.7 MB
[runlim] sample:		899.4 time, 460.7 real, 1713.7 MB
[runlim] sample:		998.2 time, 470.7 real, 1713.8 MB
[runlim] sample:		1097.6 time, 480.7 real, 1713.8 MB
[runlim] sample:		1131.2 time, 490.7 real, 849.4 MB
[runlim] sample:		1161.2 time, 500.7 real, 849.4 MB
[runlim] sample:		1181.6 time, 510.7 real, 799.2 MB
Root relaxation solution time = 110.70 sec. (40438.03 ticks)

        Nodes                                         Cuts/
   Node  Left     Objective  IInf  Best Integer    Best Bound    ItCnt     Gap

*     0+    0                           48.0000        0.0000           100.00%
*     0+    0                           46.0000        0.0000           100.00%
*     0+    0                           44.0000        0.0000           100.00%
*     0+    0                           42.0000        0.0000           100.00%
      0     0       18.0000  1371       42.0000       18.0000    60423   57.14%

========== NEW INCUMBENT SOLUTION ==========
{1: 736, 2: 498, 3: 324, 4: 86, 5: 352, 6: 114, 7: 408, 8: 170, 9: 512, 10: 750, 11: 652, 12: 414, 13: 352, 14: 114, 15: 30, 16: 268, 17: 114, 18: 352, 19: 498, 20: 736, 21: 736, 22: 498, 23: 526, 24: 764, 25: 268, 26: 30, 27: 114, 28: 352, 29: 736, 30: 498, 31: 268, 32: 30, 33: 736, 34: 498, 35: 100, 36: 338, 37: 58, 38: 296, 39: 736, 40: 498, 41: 240, 42: 478, 43: 694, 44: 456, 45: 324, 46: 86, 47: 498, 48: 736, 49: 736, 50: 498, 51: 352, 52: 114, 53: 554, 54: 792, 55: 736, 56: 498, 57: 442, 58: 680, 59: 652, 60: 414, 61: 100, 62: 338, 63: 30, 64: 268, 65: 352, 66: 114, 67: 680, 68: 442, 69: 736, 70: 498, 71: 240, 72: 478, 73: 736, 74: 498, 75: 16, 76: 254, 77: 114, 78: 352, 79: 44, 80: 282, 81: 58, 82: 296, 83: 736, 84: 498, 85: 338, 86: 100, 87: 114, 88: 352, 89: 16, 90: 254, 91: 498, 92: 736, 93: 16, 94: 254, 95: 442, 96: 680, 97: 442, 98: 680, 99: 554, 100: 792, 101: 442, 102: 680, 103: 268, 104: 30, 105: 498, 106: 736, 107: 114, 108: 352, 109: 114, 110: 352, 111: 324, 112: 86, 113: 736, 114: 498, 115: 268, 116: 30, 117: 268, 118: 30, 119: 114, 120: 352, 121: 58, 122: 296, 123: 352, 124: 114, 125: 114, 126: 352, 127: 442, 128: 680, 129: 268, 130: 30, 131: 16, 132: 254, 133: 498, 134: 736, 135: 442, 136: 680, 137: 792, 138: 554, 139: 764, 140: 526, 141: 254, 142: 16, 143: 680, 144: 442, 145: 554, 146: 792, 147: 680, 148: 442, 149: 414, 150: 652, 151: 100, 152: 338, 153: 680, 154: 442, 155: 338, 156: 100, 157: 114, 158: 352, 159: 268, 160: 30, 161: 30, 162: 268, 163: 554, 164: 792, 165: 16, 166: 254, 167: 114, 168: 352, 169: 680, 170: 442, 171: 736, 172: 498, 173: 554, 174: 792, 175: 736, 176: 498, 177: 478, 178: 240, 179: 652, 180: 414, 181: 114, 182: 352, 183: 352, 184: 114, 185: 16, 186: 254, 187: 764, 188: 526, 189: 778, 190: 540, 191: 680, 192: 442, 193: 114, 194: 352, 195: 30, 196: 268, 197: 352, 198: 114, 199: 268, 200: 30, 201: 652, 202: 414, 203: 498, 204: 736, 205: 478, 206: 240, 207: 792, 208: 554, 209: 352, 210: 114, 211: 44, 212: 282, 213: 764, 214: 526, 215: 442, 216: 680, 217: 268, 218: 30, 219: 694, 220: 456, 221: 268, 222: 30, 223: 540, 224: 778, 225: 442, 226: 680, 227: 498, 228: 736, 229: 352, 230: 114, 231: 512, 232: 750, 233: 58, 234: 296, 235: 86, 236: 324, 237: 498, 238: 736, 239: 498, 240: 736, 241: 792, 242: 554, 243: 680, 244: 442, 245: 498, 246: 736, 247: 736, 248: 498, 249: 764, 250: 526, 251: 750, 252: 512, 253: 680, 254: 442, 255: 352, 256: 114, 257: 680, 258: 442, 259: 414, 260: 652, 261: 778, 262: 540, 263: 680, 264: 442, 265: 142, 266: 380, 267: 16, 268: 254, 269: 764, 270: 526, 271: 352, 272: 114, 273: 680, 274: 442, 275: 736, 276: 498, 277: 338, 278: 100, 279: 750, 280: 512, 281: 750, 282: 512, 283: 16, 284: 254, 285: 442, 286: 680, 287: 296, 288: 58, 289: 30, 290: 268, 291: 352, 292: 114, 293: 30, 294: 268, 295: 554, 296: 792, 297: 352, 298: 114, 299: 736, 300: 498, 301: 338, 302: 100, 303: 484, 304: 722, 305: 498, 306: 736, 307: 680, 308: 442, 309: 456, 310: 694, 311: 16, 312: 254, 313: 352, 314: 114, 315: 736, 316: 498, 317: 792, 318: 554, 319: 310, 320: 72, 321: 16, 322: 254, 323: 352, 324: 114, 325: 764, 326: 526, 327: 44, 328: 282, 329: 16, 330: 254, 331: 680, 332: 442, 333: 352, 334: 114, 335: 16, 336: 254, 337: 736, 338: 498, 339: 254, 340: 16, 341: 498, 342: 736, 343: 554, 344: 792, 345: 380, 346: 142, 347: 268, 348: 30, 349: 680, 350: 442, 351: 456, 352: 694, 353: 352, 354: 114, 355: 442, 356: 680, 357: 16, 358: 254, 359: 380, 360: 142, 361: 478, 362: 240, 363: 652, 364: 414, 365: 310, 366: 72, 367: 114, 368: 352, 369: 72, 370: 310, 371: 778, 372: 540, 373: 680, 374: 442, 375: 456, 376: 694, 377: 498, 378: 736, 379: 478, 380: 240, 381: 170, 382: 408, 383: 170, 384: 408, 385: 44, 386: 282, 387: 498, 388: 736, 389: 142, 390: 380, 391: 442, 392: 680, 393: 680, 394: 442, 395: 72, 396: 310, 397: 792, 398: 554, 399: 442, 400: 680, 401: 792, 402: 554, 403: 30, 404: 268, 405: 442, 406: 680, 407: 694, 408: 456, 409: 380, 410: 142, 411: 680, 412: 442, 413: 30, 414: 268, 415: 16, 416: 254, 417: 680, 418: 442, 419: 498, 420: 736, 421: 30, 422: 268, 423: 736, 424: 498, 425: 736, 426: 498, 427: 442, 428: 680, 429: 554, 430: 792, 431: 554, 432: 792, 433: 380, 434: 142, 435: 352, 436: 114, 437: 694, 438: 456, 439: 114, 440: 352, 441: 498, 442: 736, 443: 498, 444: 736, 445: 114, 446: 352, 447: 282, 448: 44, 449: 778, 450: 540, 451: 694, 452: 456, 453: 498, 454: 736, 455: 498, 456: 736, 457: 736, 458: 498, 459: 652, 460: 414, 461: 240, 462: 478, 463: 498, 464: 736, 465: 526, 466: 764, 467: 764, 468: 526, 469: 16, 470: 254, 471: 652, 472: 414, 473: 30, 474: 268, 475: 254, 476: 16, 477: 310, 478: 72, 479: 414, 480: 652, 481: 512, 482: 750, 483: 736, 484: 498, 485: 680, 486: 442, 487: 680, 488: 442, 489: 30, 490: 268, 491: 512, 492: 750, 493: 380, 494: 142, 495: 680, 496: 442, 497: 114, 498: 352, 499: 694, 500: 456, 501: 694, 502: 456, 503: 240, 504: 478, 505: 722, 506: 484, 507: 478, 508: 240, 509: 680, 510: 442, 511: 268, 512: 30, 513: 680, 514: 442, 515: 16, 516: 254, 517: 736, 518: 498, 519: 694, 520: 456, 521: 792, 522: 554, 523: 30, 524: 268, 525: 792, 526: 554, 527: 792, 528: 554, 529: 498, 530: 736, 531: 72, 532: 310, 533: 442, 534: 680, 535: 352, 536: 114, 537: 30, 538: 268, 539: 554, 540: 792, 541: 114, 542: 352, 543: 114, 544: 352, 545: 792, 546: 554, 547: 442, 548: 680, 549: 16, 550: 254, 551: 100, 552: 338, 553: 16, 554: 254, 555: 44, 556: 282, 557: 394, 558: 156, 559: 750, 560: 512, 561: 16, 562: 254, 563: 114, 564: 352, 565: 442, 566: 680, 567: 736, 568: 498, 569: 408, 570: 170, 571: 268, 572: 30, 573: 310, 574: 72, 575: 736, 576: 498, 577: 736, 578: 498, 579: 680, 580: 442, 581: 792, 582: 554, 583: 254, 584: 16, 585: 170, 586: 408, 587: 142, 588: 380, 589: 792, 590: 554, 591: 722, 592: 484, 593: 722, 594: 484, 595: 736, 596: 498, 597: 240, 598: 478, 599: 352, 600: 114, 601: 652, 602: 414, 603: 310, 604: 72, 605: 680, 606: 442, 607: 554, 608: 792, 609: 498, 610: 736, 611: 114, 612: 352, 613: 456, 614: 694, 615: 792, 616: 554, 617: 442, 618: 680, 619: 414, 620: 652, 621: 352, 622: 114, 623: 268, 624: 30, 625: 310, 626: 72, 627: 512, 628: 750, 629: 338, 630: 100, 631: 408, 632: 170, 633: 254, 634: 16, 635: 254, 636: 16, 637: 86, 638: 324, 639: 540, 640: 778, 641: 456, 642: 694, 643: 680, 644: 442, 645: 30, 646: 268, 647: 694, 648: 456, 649: 114, 650: 352, 651: 456, 652: 694, 653: 456, 654: 694, 655: 792, 656: 554, 657: 554, 658: 792, 659: 114, 660: 352, 661: 484, 662: 722, 663: 554, 664: 792, 665: 310, 666: 72, 667: 296, 668: 58, 669: 694, 670: 456, 671: 30, 672: 268, 673: 680, 674: 442, 675: 554, 676: 792, 677: 352, 678: 114, 679: 310, 680: 72, 681: 352, 682: 114, 683: 736, 684: 498, 685: 478, 686: 240, 687: 268, 688: 30, 689: 352, 690: 114, 691: 792, 692: 554, 693: 526, 694: 764, 695: 114, 696: 352, 697: 680, 698: 442, 699: 86, 700: 324, 701: 512, 702: 750, 703: 170, 704: 408, 705: 680, 706: 442, 707: 736, 708: 498, 709: 792, 710: 554, 711: 680, 712: 442, 713: 652, 714: 414, 715: 540, 716: 778, 717: 456, 718: 694, 719: 58, 720: 296, 721: 736, 722: 498, 723: 484, 724: 722, 725: 442, 726: 680, 727: 240, 728: 478, 729: 680, 730: 442, 731: 352, 732: 114, 733: 114, 734: 352, 735: 498, 736: 736, 737: 142, 738: 380, 739: 170, 740: 408, 741: 778, 742: 540, 743: 680, 744: 442, 745: 764, 746: 526, 747: 58, 748: 296, 749: 30, 750: 268, 751: 694, 752: 456, 753: 142, 754: 380, 755: 338, 756: 100, 757: 652, 758: 414, 759: 114, 760: 352, 761: 456, 762: 694, 763: 414, 764: 652, 765: 114, 766: 352, 767: 268, 768: 30, 769: 540, 770: 778, 771: 736, 772: 498, 773: 408, 774: 170, 775: 750, 776: 512, 777: 114, 778: 352, 779: 16, 780: 254, 781: 296, 782: 58, 783: 114, 784: 352, 785: 44, 786: 282, 787: 526, 788: 764, 789: 30, 790: 268, 791: 722, 792: 484, 793: 16, 794: 254, 795: 142, 796: 380, 797: 778, 798: 540, 799: 408, 800: 170, 801: 114, 802: 352, 803: 414, 804: 652, 805: 254, 806: 16, 807: 694, 808: 456, 809: 442, 810: 680, 811: 736, 812: 498, 813: 736, 814: 498, 815: 498, 816: 736, 817: 498, 818: 736, 819: 736, 820: 498, 821: 652, 822: 414, 823: 16, 824: 254, 825: 540, 826: 778, 827: 736, 828: 498, 829: 750, 830: 512, 831: 352, 832: 114, 833: 442, 834: 680, 835: 268, 836: 30, 837: 352, 838: 114, 839: 498, 840: 736, 841: 16, 842: 254, 843: 484, 844: 722, 845: 282, 846: 44, 847: 16, 848: 254, 849: 498, 850: 736, 851: 498, 852: 736, 853: 554, 854: 792, 855: 310, 856: 72, 857: 240, 858: 478, 859: 414, 860: 652, 861: 694, 862: 456, 863: 170, 864: 408, 865: 254, 866: 16, 867: 736, 868: 498, 869: 16, 870: 254, 871: 554, 872: 792, 873: 352, 874: 114, 875: 114, 876: 352, 877: 736, 878: 498, 879: 484, 880: 722, 881: 694, 882: 456, 883: 268, 884: 30, 885: 268, 886: 30, 887: 58, 888: 296, 889: 456, 890: 694, 891: 72, 892: 310, 893: 352, 894: 114, 895: 792, 896: 554, 897: 114, 898: 352, 899: 736, 900: 498, 901: 30, 902: 268, 903: 414, 904: 652, 905: 414, 906: 652, 907: 254, 908: 16, 909: 100, 910: 338, 911: 722, 912: 484, 913: 86, 914: 324, 915: 30, 916: 268}
Number of labels used: 42
Total time: 513.12 sec
Memory: 794.98 MB
=============================================

========== NEW INCUMBENT SOLUTION ==========
{1: 736, 2: 498, 3: 324, 4: 86, 5: 352, 6: 114, 7: 408, 8: 170, 9: 512, 10: 750, 11: 652, 12: 414, 13: 352, 14: 114, 15: 30, 16: 268, 17: 114, 18: 352, 19: 498, 20: 736, 21: 736, 22: 498, 23: 526, 24: 764, 25: 268, 26: 30, 27: 114, 28: 352, 29: 736, 30: 498, 31: 268, 32: 30, 33: 736, 34: 498, 35: 100, 36: 338, 37: 58, 38: 296, 39: 736, 40: 498, 41: 240, 42: 478, 43: 694, 44: 456, 45: 324, 46: 86, 47: 498, 48: 736, 49: 736, 50: 498, 51: 352, 52: 114, 53: 554, 54: 792, 55: 736, 56: 498, 57: 442, 58: 680, 59: 652, 60: 414, 61: 100, 62: 338, 63: 30, 64: 268, 65: 352, 66: 114, 67: 680, 68: 442, 69: 736, 70: 498, 71: 240, 72: 478, 73: 736, 74: 498, 75: 16, 76: 254, 77: 114, 78: 352, 79: 44, 80: 282, 81: 58, 82: 296, 83: 736, 84: 498, 85: 338, 86: 100, 87: 114, 88: 352, 89: 16, 90: 254, 91: 498, 92: 736, 93: 16, 94: 254, 95: 442, 96: 680, 97: 442, 98: 680, 99: 554, 100: 792, 101: 442, 102: 680, 103: 268, 104: 30, 105: 498, 106: 736, 107: 114, 108: 352, 109: 114, 110: 352, 111: 324, 112: 86, 113: 736, 114: 498, 115: 268, 116: 30, 117: 268, 118: 30, 119: 114, 120: 352, 121: 58, 122: 296, 123: 352, 124: 114, 125: 114, 126: 352, 127: 442, 128: 680, 129: 268, 130: 30, 131: 16, 132: 254, 133: 498, 134: 736, 135: 442, 136: 680, 137: 792, 138: 554, 139: 764, 140: 526, 141: 254, 142: 16, 143: 680, 144: 442, 145: 554, 146: 792, 147: 680, 148: 442, 149: 414, 150: 652, 151: 100, 152: 338, 153: 680, 154: 442, 155: 338, 156: 100, 157: 114, 158: 352, 159: 268, 160: 30, 161: 30, 162: 268, 163: 554, 164: 792, 165: 16, 166: 254, 167: 114, 168: 352, 169: 680, 170: 442, 171: 736, 172: 498, 173: 554, 174: 792, 175: 736, 176: 498, 177: 478, 178: 240, 179: 652, 180: 414, 181: 114, 182: 352, 183: 352, 184: 114, 185: 16, 186: 254, 187: 764, 188: 526, 189: 778, 190: 540, 191: 680, 192: 442, 193: 114, 194: 352, 195: 30, 196: 268, 197: 352, 198: 114, 199: 268, 200: 30, 201: 652, 202: 414, 203: 498, 204: 736, 205: 478, 206: 240, 207: 792, 208: 554, 209: 352, 210: 114, 211: 44, 212: 282, 213: 764, 214: 526, 215: 442, 216: 680, 217: 268, 218: 30, 219: 694, 220: 456, 221: 268, 222: 30, 223: 540, 224: 778, 225: 442, 226: 680, 227: 498, 228: 736, 229: 352, 230: 114, 231: 512, 232: 750, 233: 58, 234: 296, 235: 86, 236: 324, 237: 498, 238: 736, 239: 498, 240: 736, 241: 792, 242: 554, 243: 680, 244: 442, 245: 498, 246: 736, 247: 736, 248: 498, 249: 764, 250: 526, 251: 750, 252: 512, 253: 680, 254: 442, 255: 352, 256: 114, 257: 680, 258: 442, 259: 414, 260: 652, 261: 778, 262: 540, 263: 680, 264: 442, 265: 142, 266: 380, 267: 16, 268: 254, 269: 764, 270: 526, 271: 352, 272: 114, 273: 680, 274: 442, 275: 736, 276: 498, 277: 338, 278: 100, 279: 750, 280: 512, 281: 750, 282: 512, 283: 16, 284: 254, 285: 442, 286: 680, 287: 296, 288: 58, 289: 30, 290: 268, 291: 352, 292: 114, 293: 30, 294: 268, 295: 554, 296: 792, 297: 352, 298: 114, 299: 736, 300: 498, 301: 338, 302: 100, 303: 484, 304: 722, 305: 498, 306: 736, 307: 680, 308: 442, 309: 456, 310: 694, 311: 16, 312: 254, 313: 352, 314: 114, 315: 736, 316: 498, 317: 792, 318: 554, 319: 310, 320: 72, 321: 16, 322: 254, 323: 352, 324: 114, 325: 764, 326: 526, 327: 44, 328: 282, 329: 16, 330: 254, 331: 680, 332: 442, 333: 352, 334: 114, 335: 16, 336: 254, 337: 736, 338: 498, 339: 254, 340: 16, 341: 498, 342: 736, 343: 554, 344: 792, 345: 380, 346: 142, 347: 268, 348: 30, 349: 680, 350: 442, 351: 456, 352: 694, 353: 352, 354: 114, 355: 442, 356: 680, 357: 16, 358: 254, 359: 380, 360: 142, 361: 478, 362: 240, 363: 652, 364: 414, 365: 310, 366: 72, 367: 114, 368: 352, 369: 72, 370: 310, 371: 778, 372: 540, 373: 680, 374: 442, 375: 456, 376: 694, 377: 498, 378: 736, 379: 478, 380: 240, 381: 170, 382: 408, 383: 170, 384: 408, 385: 44, 386: 282, 387: 498, 388: 736, 389: 142, 390: 380, 391: 442, 392: 680, 393: 680, 394: 442, 395: 72, 396: 310, 397: 792, 398: 554, 399: 442, 400: 680, 401: 792, 402: 554, 403: 30, 404: 268, 405: 442, 406: 680, 407: 694, 408: 456, 409: 380, 410: 142, 411: 680, 412: 442, 413: 30, 414: 268, 415: 16, 416: 254, 417: 680, 418: 442, 419: 498, 420: 736, 421: 30, 422: 268, 423: 736, 424: 498, 425: 736, 426: 498, 427: 442, 428: 680, 429: 554, 430: 792, 431: 554, 432: 792, 433: 380, 434: 142, 435: 352, 436: 114, 437: 694, 438: 456, 439: 114, 440: 352, 441: 498, 442: 736, 443: 498, 444: 736, 445: 114, 446: 352, 447: 282, 448: 44, 449: 778, 450: 540, 451: 694, 452: 456, 453: 498, 454: 736, 455: 498, 456: 736, 457: 736, 458: 498, 459: 652, 460: 414, 461: 240, 462: 478, 463: 498, 464: 736, 465: 526, 466: 764, 467: 764, 468: 526, 469: 16, 470: 254, 471: 652, 472: 414, 473: 30, 474: 268, 475: 254, 476: 16, 477: 310, 478: 72, 479: 414, 480: 652, 481: 512, 482: 750, 483: 736, 484: 498, 485: 680, 486: 442, 487: 680, 488: 442, 489: 30, 490: 268, 491: 512, 492: 750, 493: 380, 494: 142, 495: 680, 496: 442, 497: 114, 498: 352, 499: 694, 500: 456, 501: 694, 502: 456, 503: 240, 504: 478, 505: 722, 506: 484, 507: 478, 508: 240, 509: 680, 510: 442, 511: 268, 512: 30, 513: 680, 514: 442, 515: 16, 516: 254, 517: 736, 518: 498, 519: 694, 520: 456, 521: 792, 522: 554, 523: 30, 524: 268, 525: 792, 526: 554, 527: 792, 528: 554, 529: 498, 530: 736, 531: 72, 532: 310, 533: 442, 534: 680, 535: 352, 536: 114, 537: 30, 538: 268, 539: 554, 540: 792, 541: 114, 542: 352, 543: 114, 544: 352, 545: 792, 546: 554, 547: 442, 548: 680, 549: 16, 550: 254, 551: 100, 552: 338, 553: 16, 554: 254, 555: 44, 556: 282, 557: 394, 558: 156, 559: 750, 560: 512, 561: 16, 562: 254, 563: 114, 564: 352, 565: 442, 566: 680, 567: 736, 568: 498, 569: 408, 570: 170, 571: 268, 572: 30, 573: 310, 574: 72, 575: 736, 576: 498, 577: 736, 578: 498, 579: 680, 580: 442, 581: 792, 582: 554, 583: 254, 584: 16, 585: 170, 586: 408, 587: 142, 588: 380, 589: 792, 590: 554, 591: 722, 592: 484, 593: 722, 594: 484, 595: 736, 596: 498, 597: 240, 598: 478, 599: 352, 600: 114, 601: 652, 602: 414, 603: 310, 604: 72, 605: 680, 606: 442, 607: 554, 608: 792, 609: 498, 610: 736, 611: 114, 612: 352, 613: 456, 614: 694, 615: 792, 616: 554, 617: 442, 618: 680, 619: 414, 620: 652, 621: 352, 622: 114, 623: 268, 624: 30, 625: 310, 626: 72, 627: 512, 628: 750, 629: 338, 630: 100, 631: 408, 632: 170, 633: 254, 634: 16, 635: 254, 636: 16, 637: 86, 638: 324, 639: 540, 640: 778, 641: 456, 642: 694, 643: 680, 644: 442, 645: 30, 646: 268, 647: 694, 648: 456, 649: 114, 650: 352, 651: 456, 652: 694, 653: 456, 654: 694, 655: 792, 656: 554, 657: 554, 658: 792, 659: 114, 660: 352, 661: 484, 662: 722, 663: 554, 664: 792, 665: 310, 666: 72, 667: 296, 668: 58, 669: 694, 670: 456, 671: 30, 672: 268, 673: 680, 674: 442, 675: 554, 676: 792, 677: 352, 678: 114, 679: 310, 680: 72, 681: 352, 682: 114, 683: 736, 684: 498, 685: 478, 686: 240, 687: 268, 688: 30, 689: 352, 690: 114, 691: 792, 692: 554, 693: 526, 694: 764, 695: 114, 696: 352, 697: 680, 698: 442, 699: 86, 700: 324, 701: 512, 702: 750, 703: 170, 704: 408, 705: 680, 706: 442, 707: 736, 708: 498, 709: 792, 710: 554, 711: 680, 712: 442, 713: 652, 714: 414, 715: 540, 716: 778, 717: 456, 718: 694, 719: 58, 720: 296, 721: 736, 722: 498, 723: 484, 724: 722, 725: 442, 726: 680, 727: 240, 728: 478, 729: 680, 730: 442, 731: 352, 732: 114, 733: 114, 734: 352, 735: 498, 736: 736, 737: 142, 738: 380, 739: 170, 740: 408, 741: 778, 742: 540, 743: 680, 744: 442, 745: 764, 746: 526, 747: 58, 748: 296, 749: 30, 750: 268, 751: 694, 752: 456, 753: 142, 754: 380, 755: 338, 756: 100, 757: 652, 758: 414, 759: 114, 760: 352, 761: 456, 762: 694, 763: 414, 764: 652, 765: 114, 766: 352, 767: 268, 768: 30, 769: 540, 770: 778, 771: 736, 772: 498, 773: 408, 774: 170, 775: 750, 776: 512, 777: 114, 778: 352, 779: 16, 780: 254, 781: 296, 782: 58, 783: 114, 784: 352, 785: 44, 786: 282, 787: 526, 788: 764, 789: 30, 790: 268, 791: 722, 792: 484, 793: 16, 794: 254, 795: 142, 796: 380, 797: 778, 798: 540, 799: 408, 800: 170, 801: 114, 802: 352, 803: 414, 804: 652, 805: 254, 806: 16, 807: 694, 808: 456, 809: 442, 810: 680, 811: 736, 812: 498, 813: 736, 814: 498, 815: 498, 816: 736, 817: 498, 818: 736, 819: 736, 820: 498, 821: 652, 822: 414, 823: 16, 824: 254, 825: 540, 826: 778, 827: 736, 828: 498, 829: 750, 830: 512, 831: 352, 832: 114, 833: 442, 834: 680, 835: 268, 836: 30, 837: 352, 838: 114, 839: 498, 840: 736, 841: 16, 842: 254, 843: 484, 844: 722, 845: 282, 846: 44, 847: 16, 848: 254, 849: 498, 850: 736, 851: 498, 852: 736, 853: 554, 854: 792, 855: 310, 856: 72, 857: 240, 858: 478, 859: 414, 860: 652, 861: 694, 862: 456, 863: 170, 864: 408, 865: 254, 866: 16, 867: 736, 868: 498, 869: 16, 870: 254, 871: 554, 872: 792, 873: 352, 874: 114, 875: 114, 876: 352, 877: 736, 878: 498, 879: 484, 880: 722, 881: 694, 882: 456, 883: 268, 884: 30, 885: 268, 886: 30, 887: 58, 888: 296, 889: 456, 890: 694, 891: 72, 892: 310, 893: 352, 894: 114, 895: 792, 896: 554, 897: 114, 898: 352, 899: 736, 900: 498, 901: 30, 902: 268, 903: 414, 904: 652, 905: 414, 906: 652, 907: 254, 908: 16, 909: 100, 910: 338, 911: 722, 912: 484, 913: 86, 914: 324, 915: 30, 916: 268}
Number of labels used: 42
Total time: 513.14 sec
Memory: 795.55 MB
=============================================
[runlim] sample:		1198.7 time, 520.7 real, 896.1 MB
[runlim] sample:		1218.7 time, 530.7 real, 908.4 MB
[runlim] sample:		1238.7 time, 540.7 real, 908.6 MB
[runlim] sample:		1258.7 time, 550.7 real, 914.4 MB
[runlim] sample:		1278.6 time, 560.7 real, 915.3 MB
[runlim] sample:		1298.6 time, 570.7 real, 915.8 MB
[runlim] sample:		1318.6 time, 580.7 real, 916.3 MB
[runlim] sample:		1338.6 time, 590.7 real, 916.4 MB
[runlim] end:			Sat Jan 24 20:19:36 2026
[runlim] status:		out of time
[runlim] result:		2
[runlim] children:		0
[runlim] real:			600.12 seconds
[runlim] time:			1357.42 seconds
[runlim] space:			1713.8 MB
[runlim] samples:		5994
